50
9
0 9 10 11 12 14 16 17 19 22 24 26 27 28 34 35 36 39 40 43 44
1 10 11 12 17 20 21 23 25 32 33 34 36 37 39 40 44 45 46 47 49
2 9 10 11 14 16 17 18 22 26 27 31 32 33 35 36 39 43 44 49
3 10 12 13 17 19 23 24 26 27 28 29 30 31 33 35 36 38 39 44 48
4 9 10 11 16 22 23 31 32 34 41 49
5 9 13 19 20 26 31 39 40 43 46 47
6 11 12 13 17 18 19 21 23 28 33 34 35 37 38 39 41 44 45 49
7 14 15 16 19 22 35 39
8 24 26 28 32 42
